n = 16;
k = 4;
% init = [[10, 12, 8, 4, 9, 5, 14, 13, 11, 7, 15, 6, 3, 16, 1, 2], [], [], []];
% goal = [[5], [10], [13, 12, 2, 1, 15], [14, 9, 7, 4, 3, 6, 11, 16, 8]];
start = [2, 0, 16, 9, 14, 3, 15, 4, 5, 12, 7, 8, 11, 13, 6, 1];
end = [15, 1, 6, 3, 0, 11, 4, 0, 7, 0, 16, 2, 12, 9, 0, 8];
